15 15
5 5
5 5
14 9
10 14
15 16
14 12
10 17
13 10
7 5
7 19
6 20
13 5
7 12
5 19
8 6
11 17
8 18
7 13
7 6
11 14
6 10
11 17
14 14
6 13
5 20
8 16
6 20
6 8
14 12
12 4
13 17
13 9
9 5
14 15
10 8
11 12
11 20
6 18
5 20
14 6
11 12
15 13
15 12
7 13
14 7
6 6
8 7
15 14
9 5
7 20
13 6
9 16
14 10
8 19
15 9
15 14
13 6
15 7
14 5
5 9
15 4
12 3
15 6
13 5
8 14
14 3
13 3
5 14
11 9
14 20
13 12
9 14
7 8
5 4
11 4
7 20
12 16
12 14
13 11
9 7
12 11
14 12
15 5
5 20
9 3
9 14
12 4
13 5
6 9
8 14
10 9
14 15
13 10
13 8
14 20
6 9
14 7
7 18
11 15